words_hard_train/36.qaiger
aag 15 6 0 1 9
2
4
12
14
20
24
30
6 3 5
8 2 4
10 7 9
16 13 15
18 11 16
22 16 21
26 22 25
28 10 27
30 19 29
i0 2 y2[0]
i1 1 x1[4]
i2 1 x1[2]
i3 1 x1[3]
i4 1 x1[0]
i5 1 x1[1]
o0 bv[0]
c
simplified
  <=
    subtract
      << 7
        2 y2
      << 3
        1 x1
    << 5
      -177
