words_hard_train/36.qaiger.qdimacs
p cnf 15 28
a 2 6 7 10 12 0
e 1 3 4 5 8 9 11 13 14 15 0
1 2 3 0
-1 -3 0
-2 -3 0
-1 -2 4 0
1 -4 0
2 -4 0
3 4 5 0
-3 -5 0
-4 -5 0
6 7 8 0
-6 -8 0
-7 -8 0
5 -8 9 0
-5 -9 0
8 -9 0
-8 10 11 0
8 -11 0
-10 -11 0
-11 12 13 0
11 -13 0
-12 -13 0
-5 13 14 0
5 -14 0
-13 -14 0
9 14 15 0
-9 -15 0
-14 -15 0
15 0
